<?xml version = "1.0" encoding="UTF-8" standalone="yes"?>
<CPLEXSolution version="1.2">
 <header
   problemName="motion_vectors_dfg__7_1.5.lp"
   solutionName="incumbent"
   solutionIndex="-1"
   objectiveValue="7"
   solutionTypeValue="3"
   solutionTypeString="primal"
   solutionStatusValue="101"
   solutionStatusString="integer optimal solution"
   solutionMethodString="mip"
   primalFeasible="1"
   dualFeasible="1"
   MIPNodes="0"
   MIPIterations="155"
   writeLevel="1"/>
 <quality
   epInt="1.0000000000000001e-05"
   epRHS="9.9999999999999995e-07"
   maxIntInfeas="0"
   maxPrimalInfeas="0"
   maxX="4"
   maxSlack="3"/>
 <linearConstraints>
  <constraint name="c1" index="0" slack="0"/>
  <constraint name="c2" index="1" slack="0"/>
  <constraint name="c3" index="2" slack="0"/>
  <constraint name="c4" index="3" slack="0"/>
  <constraint name="c5" index="4" slack="0"/>
  <constraint name="c6" index="5" slack="0"/>
  <constraint name="c7" index="6" slack="0"/>
  <constraint name="c8" index="7" slack="0"/>
  <constraint name="c9" index="8" slack="0"/>
  <constraint name="c10" index="9" slack="0"/>
  <constraint name="c11" index="10" slack="0"/>
  <constraint name="c12" index="11" slack="0"/>
  <constraint name="c13" index="12" slack="0"/>
  <constraint name="c14" index="13" slack="0"/>
  <constraint name="c15" index="14" slack="0"/>
  <constraint name="c16" index="15" slack="0"/>
  <constraint name="c17" index="16" slack="0"/>
  <constraint name="c18" index="17" slack="0"/>
  <constraint name="c19" index="18" slack="0"/>
  <constraint name="c20" index="19" slack="0"/>
  <constraint name="c21" index="20" slack="0"/>
  <constraint name="c22" index="21" slack="0"/>
  <constraint name="c23" index="22" slack="0"/>
  <constraint name="c24" index="23" slack="0"/>
  <constraint name="c25" index="24" slack="0"/>
  <constraint name="c26" index="25" slack="0"/>
  <constraint name="c27" index="26" slack="0"/>
  <constraint name="c28" index="27" slack="0"/>
  <constraint name="c29" index="28" slack="0"/>
  <constraint name="c30" index="29" slack="0"/>
  <constraint name="c31" index="30" slack="0"/>
  <constraint name="c32" index="31" slack="0"/>
  <constraint name="c33" index="32" slack="0"/>
  <constraint name="c34" index="33" slack="1"/>
  <constraint name="c35" index="34" slack="0"/>
  <constraint name="c36" index="35" slack="1"/>
  <constraint name="c37" index="36" slack="1"/>
  <constraint name="c38" index="37" slack="1"/>
  <constraint name="c39" index="38" slack="0"/>
  <constraint name="c40" index="39" slack="1"/>
  <constraint name="c41" index="40" slack="0"/>
  <constraint name="c42" index="41" slack="1"/>
  <constraint name="c43" index="42" slack="2"/>
  <constraint name="c44" index="43" slack="0"/>
  <constraint name="c45" index="44" slack="2"/>
  <constraint name="c46" index="45" slack="0"/>
  <constraint name="c47" index="46" slack="0"/>
  <constraint name="c48" index="47" slack="0"/>
  <constraint name="c49" index="48" slack="0"/>
  <constraint name="c50" index="49" slack="1"/>
  <constraint name="c51" index="50" slack="0"/>
  <constraint name="c52" index="51" slack="0"/>
  <constraint name="c53" index="52" slack="1"/>
  <constraint name="c54" index="53" slack="0"/>
  <constraint name="c55" index="54" slack="0"/>
  <constraint name="c56" index="55" slack="0"/>
  <constraint name="c57" index="56" slack="0"/>
  <constraint name="c58" index="57" slack="2"/>
  <constraint name="c59" index="58" slack="3"/>
  <constraint name="c60" index="59" slack="0"/>
  <constraint name="c61" index="60" slack="0"/>
  <constraint name="c62" index="61" slack="2"/>
  <constraint name="c63" index="62" slack="1"/>
  <constraint name="c64" index="63" slack="0"/>
  <constraint name="c65" index="64" slack="0"/>
  <constraint name="c66" index="65" slack="1"/>
  <constraint name="c67" index="66" slack="0"/>
  <constraint name="c68" index="67" slack="0"/>
  <constraint name="c69" index="68" slack="0"/>
  <constraint name="c70" index="69" slack="0"/>
  <constraint name="c71" index="70" slack="0"/>
  <constraint name="c72" index="71" slack="1"/>
  <constraint name="c73" index="72" slack="0"/>
  <constraint name="c74" index="73" slack="1"/>
  <constraint name="c75" index="74" slack="3"/>
  <constraint name="c76" index="75" slack="1"/>
  <constraint name="c77" index="76" slack="1"/>
 </linearConstraints>
 <variables>
  <variable name="M1" index="0" value="4"/>
  <variable name="M2" index="1" value="3"/>
  <variable name="x0,2" index="2" value="0"/>
  <variable name="x0,3" index="3" value="1"/>
  <variable name="x0,4" index="4" value="-0"/>
  <variable name="x0,5" index="5" value="-0"/>
  <variable name="x0,6" index="6" value="-0"/>
  <variable name="x0,7" index="7" value="-0"/>
  <variable name="x0,8" index="8" value="0"/>
  <variable name="x0,9" index="9" value="-0"/>
  <variable name="x1,3" index="10" value="1"/>
  <variable name="x1,4" index="11" value="-0"/>
  <variable name="x1,5" index="12" value="-0"/>
  <variable name="x1,6" index="13" value="-0"/>
  <variable name="x1,7" index="14" value="-0"/>
  <variable name="x1,8" index="15" value="0"/>
  <variable name="x1,9" index="16" value="0"/>
  <variable name="x2,2" index="17" value="1"/>
  <variable name="x2,3" index="18" value="-0"/>
  <variable name="x2,4" index="19" value="-0"/>
  <variable name="x2,5" index="20" value="-0"/>
  <variable name="x2,6" index="21" value="-0"/>
  <variable name="x2,7" index="22" value="-0"/>
  <variable name="x2,8" index="23" value="0"/>
  <variable name="x3,1" index="24" value="1"/>
  <variable name="x3,2" index="25" value="-0"/>
  <variable name="x3,3" index="26" value="-0"/>
  <variable name="x3,4" index="27" value="-0"/>
  <variable name="x3,5" index="28" value="-0"/>
  <variable name="x3,6" index="29" value="-0"/>
  <variable name="x3,7" index="30" value="-0"/>
  <variable name="x4,4" index="31" value="-0"/>
  <variable name="x4,5" index="32" value="1"/>
  <variable name="x4,6" index="33" value="-0"/>
  <variable name="x4,7" index="34" value="-0"/>
  <variable name="x4,8" index="35" value="0"/>
  <variable name="x4,9" index="36" value="0"/>
  <variable name="x5,5" index="37" value="-0"/>
  <variable name="x5,6" index="38" value="-0"/>
  <variable name="x5,7" index="39" value="1"/>
  <variable name="x5,8" index="40" value="0"/>
  <variable name="x5,9" index="41" value="-0"/>
  <variable name="x6,6" index="42" value="-0"/>
  <variable name="x6,7" index="43" value="1"/>
  <variable name="x6,8" index="44" value="0"/>
  <variable name="x6,9" index="45" value="0"/>
  <variable name="x7,5" index="46" value="0"/>
  <variable name="x7,6" index="47" value="1"/>
  <variable name="x7,7" index="48" value="-0"/>
  <variable name="x7,8" index="49" value="0"/>
  <variable name="x8,4" index="50" value="0"/>
  <variable name="x8,5" index="51" value="1"/>
  <variable name="x8,6" index="52" value="-0"/>
  <variable name="x8,7" index="53" value="-0"/>
  <variable name="x9,3" index="54" value="0"/>
  <variable name="x9,4" index="55" value="1"/>
  <variable name="x9,5" index="56" value="-0"/>
  <variable name="x9,6" index="57" value="0"/>
  <variable name="x10,2" index="58" value="0"/>
  <variable name="x10,3" index="59" value="1"/>
  <variable name="x10,4" index="60" value="-0"/>
  <variable name="x10,5" index="61" value="0"/>
  <variable name="x11,3" index="62" value="1"/>
  <variable name="x11,4" index="63" value="-0"/>
  <variable name="x11,5" index="64" value="-0"/>
  <variable name="x11,6" index="65" value="-0"/>
  <variable name="x11,7" index="66" value="-0"/>
  <variable name="x11,8" index="67" value="0"/>
  <variable name="x11,9" index="68" value="0"/>
  <variable name="x12,4" index="69" value="-0"/>
  <variable name="x12,5" index="70" value="0"/>
  <variable name="x12,6" index="71" value="-0"/>
  <variable name="x12,7" index="72" value="-0"/>
  <variable name="x12,8" index="73" value="0"/>
  <variable name="x12,9" index="74" value="1"/>
  <variable name="x13,5" index="75" value="0"/>
  <variable name="x13,6" index="76" value="-0"/>
  <variable name="x13,7" index="77" value="-0"/>
  <variable name="x13,8" index="78" value="0"/>
  <variable name="x13,9" index="79" value="1"/>
  <variable name="x14,4" index="80" value="0"/>
  <variable name="x14,5" index="81" value="-0"/>
  <variable name="x14,6" index="82" value="1"/>
  <variable name="x14,7" index="83" value="-0"/>
  <variable name="x14,8" index="84" value="0"/>
  <variable name="x15,3" index="85" value="-0"/>
  <variable name="x15,4" index="86" value="-0"/>
  <variable name="x15,5" index="87" value="1"/>
  <variable name="x15,6" index="88" value="-0"/>
  <variable name="x15,7" index="89" value="-0"/>
  <variable name="x16,2" index="90" value="1"/>
  <variable name="x16,3" index="91" value="-0"/>
  <variable name="x16,4" index="92" value="-0"/>
  <variable name="x16,5" index="93" value="-0"/>
  <variable name="x16,6" index="94" value="0"/>
  <variable name="x17,1" index="95" value="1"/>
  <variable name="x17,2" index="96" value="-0"/>
  <variable name="x17,3" index="97" value="-0"/>
  <variable name="x17,4" index="98" value="0"/>
  <variable name="x18,4" index="99" value="-0"/>
  <variable name="x18,5" index="100" value="1"/>
  <variable name="x18,6" index="101" value="-0"/>
  <variable name="x18,7" index="102" value="-0"/>
  <variable name="x18,8" index="103" value="0"/>
  <variable name="x18,9" index="104" value="0"/>
  <variable name="x19,5" index="105" value="-0"/>
  <variable name="x19,6" index="106" value="-0"/>
  <variable name="x19,7" index="107" value="1"/>
  <variable name="x19,8" index="108" value="0"/>
  <variable name="x19,9" index="109" value="-0"/>
  <variable name="x20,6" index="110" value="-0"/>
  <variable name="x20,7" index="111" value="1"/>
  <variable name="x20,8" index="112" value="0"/>
  <variable name="x20,9" index="113" value="0"/>
  <variable name="x21,5" index="114" value="0"/>
  <variable name="x21,6" index="115" value="1"/>
  <variable name="x21,7" index="116" value="-0"/>
  <variable name="x21,8" index="117" value="0"/>
  <variable name="x22,4" index="118" value="0"/>
  <variable name="x22,5" index="119" value="1"/>
  <variable name="x22,6" index="120" value="-0"/>
  <variable name="x22,7" index="121" value="-0"/>
  <variable name="x23,3" index="122" value="0"/>
  <variable name="x23,4" index="123" value="1"/>
  <variable name="x23,5" index="124" value="-0"/>
  <variable name="x23,6" index="125" value="0"/>
  <variable name="x24,2" index="126" value="0"/>
  <variable name="x24,3" index="127" value="1"/>
  <variable name="x24,4" index="128" value="-0"/>
  <variable name="x24,5" index="129" value="0"/>
  <variable name="x25,3" index="130" value="0"/>
  <variable name="x25,4" index="131" value="-0"/>
  <variable name="x25,5" index="132" value="1"/>
  <variable name="x25,6" index="133" value="-0"/>
  <variable name="x25,7" index="134" value="-0"/>
  <variable name="x25,8" index="135" value="0"/>
  <variable name="x25,9" index="136" value="-0"/>
  <variable name="x26,4" index="137" value="-0"/>
  <variable name="x26,5" index="138" value="0"/>
  <variable name="x26,6" index="139" value="-0"/>
  <variable name="x26,7" index="140" value="-0"/>
  <variable name="x26,8" index="141" value="0"/>
  <variable name="x26,9" index="142" value="1"/>
  <variable name="x27,5" index="143" value="0"/>
  <variable name="x27,6" index="144" value="-0"/>
  <variable name="x27,7" index="145" value="-0"/>
  <variable name="x27,8" index="146" value="0"/>
  <variable name="x27,9" index="147" value="1"/>
  <variable name="x28,4" index="148" value="0"/>
  <variable name="x28,5" index="149" value="-0"/>
  <variable name="x28,6" index="150" value="-0"/>
  <variable name="x28,7" index="151" value="-0"/>
  <variable name="x28,8" index="152" value="1"/>
  <variable name="x29,3" index="153" value="0"/>
  <variable name="x29,4" index="154" value="-0"/>
  <variable name="x29,5" index="155" value="-0"/>
  <variable name="x29,6" index="156" value="-0"/>
  <variable name="x29,7" index="157" value="1"/>
  <variable name="x30,2" index="158" value="-0"/>
  <variable name="x30,3" index="159" value="1"/>
  <variable name="x30,4" index="160" value="-0"/>
  <variable name="x30,5" index="161" value="-0"/>
  <variable name="x30,6" index="162" value="0"/>
  <variable name="x31,1" index="163" value="1"/>
  <variable name="x31,2" index="164" value="-0"/>
  <variable name="x31,3" index="165" value="0"/>
  <variable name="x31,4" index="166" value="-0"/>
  <variable name="x1,2" index="167" value="0"/>
  <variable name="x11,2" index="168" value="0"/>
  <variable name="x25,2" index="169" value="0"/>
  <variable name="x4,3" index="170" value="0"/>
  <variable name="x12,3" index="171" value="0"/>
  <variable name="x18,3" index="172" value="0"/>
  <variable name="x26,3" index="173" value="0"/>
  <variable name="x5,4" index="174" value="0"/>
  <variable name="x13,4" index="175" value="0"/>
  <variable name="x19,4" index="176" value="0"/>
  <variable name="x27,4" index="177" value="0"/>
  <variable name="x6,5" index="178" value="0"/>
  <variable name="x20,5" index="179" value="0"/>
  <variable name="x0,10" index="180" value="0"/>
  <variable name="x1,10" index="181" value="0"/>
  <variable name="x4,10" index="182" value="0"/>
  <variable name="x5,10" index="183" value="0"/>
  <variable name="x6,10" index="184" value="0"/>
  <variable name="x11,10" index="185" value="0"/>
  <variable name="x12,10" index="186" value="0"/>
  <variable name="x13,10" index="187" value="0"/>
  <variable name="x18,10" index="188" value="0"/>
  <variable name="x19,10" index="189" value="0"/>
  <variable name="x20,10" index="190" value="0"/>
  <variable name="x25,10" index="191" value="0"/>
  <variable name="x26,10" index="192" value="0"/>
  <variable name="x27,10" index="193" value="0"/>
 </variables>
</CPLEXSolution>
